355
342
352
297
96
0
272
0
266
169
111
261
11
12
70
50
408
67
149
248
56
12
73
253
364
173
53
129
223
259
185
214
76
493
56
207
14
91
191
68
219
331
512
196
0
218
234
10
435
13
54
30
157
252
120
359
138
13
246
30
151
303
118
24
37
29
170
241
355
251
206
260
273
47
44
225
70
110
178
311
58
499
27
247
53
341
184
126
113
260
230
441
14
229
51
178
128
430
138
352
